Nodes = {"0", "1", "2", "3", "4", "5", "6"};
Arcs = {<"0","1",20,0>, <"0","6",20,0>, <"0","2",20,9>, <"0","3",20,22>, <"0","4",20,6>, <"0","5",20,13>, <"1","2",20,0>, <"1","3",20,10>, <"1","4",20,9>, <"1","5",20,2>, <"1","6",20,14>, <"2","3",20,0>, <"2","4",20,3>, <"2","5",20,9>, <"2","6",20,18>, <"3","4",20,0>, <"3","5",20,10>, <"3","6",20,9>, <"4","6",20,0>, <"4","5",20,9>, <"5","6",20,0>, };
Demands = {<"0","1",2,0>, <"0","2",4,1>, <"0","3",6,0>, <"0","4",8,0>, <"0","5",10,0>, <"0","6",12,0>, <"1","0",2,0>, <"1","2",2,0>, <"1","3",4,0>, <"1","4",6,0>, <"1","5",8,0>, <"1","6",10,0>, <"2","0",4,0>, <"2","1",2,0>, <"2","3",2,0>, <"2","4",4,0>, <"2","5",6,0>, <"2","6",8,0>, <"3","0",6,0>, <"3","1",4,1>, <"3","2",2,0>, <"3","4",2,0>, <"3","5",4,1>, <"3","6",6,0>, <"4","0",8,0>, <"4","1",6,0>, <"4","2",4,0>, <"4","3",2,0>, <"4","5",2,0>, <"4","6",4,0>, <"5","0",10,0>, <"5","1",8,0>, <"5","2",6,0>, <"5","3",4,0>, <"5","4",2,0>, <"5","6",2,0>, <"6","0",12,0>, <"6","1",10,0>, <"6","2",8,0>, <"6","3",6,0>, <"6","4",4,0>, <"6","5",2,0>, <"3","1",4,1>, <"3","1",4,1>, <"0","2",4,1>, <"3","5",4,1>};
